% seed = 8035810

mint = 64;
% maxt = 197;

nActs = 42;
dur = [0,8,3,4,8,6,10,2,4,3,2,7,1,2,10,8,7,1,2,10,1,2,3,6,8,4,6,4,6,9,4,5,9,1,8,1,3,7,1,1,10,0];

nSkills = 4;
sreq = [| 0,0,0,0,
	| 0,7,7,2,
	| 2,0,3,2,
	| 7,7,6,0,
	| 7,4,6,0,
	| 5,6,1,0,
	| 4,3,0,5,
	| 3,6,0,4,
	| 1,4,3,0,
	| 4,0,2,3,
	| 0,5,5,4,
	| 4,0,3,6,
	| 3,3,0,5,
	| 3,0,2,5,
	| 4,5,0,4,
	| 0,3,2,1,
	| 2,5,0,2,
	| 4,3,0,5,
	| 5,2,0,5,
	| 0,7,3,3,
	| 5,4,0,2,
	| 4,4,0,4,
	| 3,0,7,6,
	| 5,4,6,0,
	| 1,4,4,0,
	| 5,5,0,7,
	| 5,3,3,0,
	| 6,2,0,3,
	| 0,3,2,4,
	| 2,1,5,0,
	| 6,4,0,7,
	| 7,6,4,0,
	| 0,4,2,1,
	| 0,2,2,5,
	| 0,6,3,1,
	| 5,5,0,6,
	| 1,3,6,0,
	| 0,5,5,4,
	| 3,0,3,1,
	| 1,7,0,2,
	| 7,0,3,7,
	| 0,0,0,0, |];

nResources = 45;
mastery = [| true,false,false,false,
	| false,true,false,false,
	| true,false,false,false,
	| false,true,true,false,
	| false,true,true,true,
	| true,false,true,false,
	| false,false,false,true,
	| false,false,true,true,
	| true,false,true,true,
	| true,false,false,false,
	| true,false,false,true,
	| true,false,true,false,
	| false,false,false,true,
	| true,false,false,false,
	| false,true,true,false,
	| true,true,true,false,
	| false,true,true,true,
	| true,false,true,true,
	| true,false,false,false,
	| false,true,true,false,
	| false,false,true,true,
	| true,false,true,true,
	| false,true,false,false,
	| true,true,false,false,
	| true,true,false,true,
	| false,false,true,true,
	| true,true,true,false,
	| true,false,false,true,
	| false,true,false,true,
	| false,false,false,true,
	| false,true,false,false,
	| false,true,false,true,
	| true,false,true,true,
	| true,true,false,true,
	| true,true,false,false,
	| false,false,false,true,
	| false,true,true,false,
	| true,false,false,true,
	| true,false,false,true,
	| true,false,true,true,
	| false,true,true,false,
	| true,true,false,false,
	| false,true,true,false,
	| true,true,false,false,
	| false,false,true,false, |];

nPrecs = 61;
pred = [1,1,1,2,3,3,3,4,4,4,5,5,5,6,6,7,7,7,8,8,9,9,10,11,12,13,13,13,14,14,15,16,16,17,18,19,20,21,21,21,22,23,24,25,26,27,28,28,29,30,31,32,33,34,35,36,37,38,39,40,41];
succ = [2,3,4,8,27,21,15,5,6,16,10,11,37,41,7,9,17,13,20,12,14,40,21,30,38,29,30,24,19,36,28,25,18,26,35,22,32,33,22,23,24,34,25,31,36,40,36,32,35,31,35,39,37,41,38,39,41,40,42,42,42];

nUnrels = 538;
unpred = [2,2,2,2,2,2,2,2,2,2,2,2,2,2,2,2,2,2,2,2,2,2,2,2,2,2,2,2,2,2,2,2,3,3,3,3,3,3,3,3,3,3,3,3,3,3,3,3,3,3,3,4,4,4,4,4,4,4,5,5,5,5,5,5,5,5,5,5,5,5,5,5,5,5,5,5,5,5,6,6,6,6,6,6,6,6,6,6,6,6,6,6,6,6,7,7,7,7,7,7,7,7,7,7,7,7,7,7,7,7,7,8,8,8,8,8,8,8,8,8,8,8,8,8,8,8,8,8,8,8,8,8,8,8,8,8,8,8,9,9,9,9,9,9,9,9,9,9,9,9,9,9,9,9,9,9,9,9,9,10,10,10,10,10,10,10,10,10,10,10,10,10,10,10,10,10,10,11,11,11,11,11,11,11,11,11,11,11,11,11,11,11,11,11,11,11,11,11,11,11,11,11,12,12,12,12,12,12,12,12,12,12,12,12,12,12,12,12,12,12,12,12,12,12,12,12,12,12,12,13,13,13,13,13,13,13,13,13,13,13,13,13,13,13,13,13,13,13,13,14,14,14,14,14,14,14,14,14,14,14,14,14,14,14,14,14,15,15,15,15,15,15,15,15,15,15,15,15,15,15,15,15,15,15,15,15,15,15,16,16,16,16,16,16,16,16,16,16,16,16,16,16,16,16,16,16,16,17,17,17,17,17,17,17,17,17,17,17,17,17,17,17,17,17,17,17,17,17,18,18,18,18,18,18,18,18,18,18,18,18,18,18,18,18,18,18,18,18,19,19,19,19,19,19,19,19,19,19,19,19,19,19,19,20,20,20,20,20,20,20,20,20,20,20,20,20,20,20,20,20,20,20,21,21,21,21,21,21,21,21,22,22,22,22,22,22,22,22,22,22,22,22,22,23,23,23,23,23,23,23,23,23,23,23,23,23,23,23,23,24,24,24,24,24,24,24,24,24,24,24,24,25,25,25,25,25,25,25,25,25,25,25,25,26,26,26,26,26,26,26,26,26,26,26,26,26,27,27,27,27,27,27,27,27,27,27,27,27,27,28,28,28,28,28,28,28,28,28,28,29,29,29,29,29,29,29,29,29,30,30,30,30,30,30,30,31,31,31,31,31,31,31,32,32,32,32,32,32,32,32,33,33,33,33,33,33,34,34,34,34,34,34,35,35,35,35,36,36,36,36,37,37,37,38,38,39,39,40];
unsucc = [3,4,5,6,7,9,10,11,13,14,15,16,17,18,19,21,22,23,24,25,26,27,28,29,30,31,33,34,35,36,37,41,4,5,6,7,8,9,10,11,12,13,14,16,17,18,19,20,26,29,30,8,12,15,20,27,28,32,6,7,8,9,12,13,14,15,16,17,18,19,20,26,27,28,29,32,36,39,8,10,11,12,15,16,18,20,21,23,27,28,32,33,34,37,8,10,11,12,15,16,18,20,21,23,27,28,32,33,34,37,41,9,10,11,13,14,15,16,17,18,19,21,22,23,24,25,26,27,28,29,30,31,33,34,35,36,37,41,10,11,12,13,15,16,17,18,20,21,23,26,27,28,29,30,32,33,34,37,41,11,12,13,14,15,16,17,18,19,20,26,27,28,29,30,32,36,39,12,13,14,15,16,17,18,19,20,21,22,23,24,25,26,27,28,29,32,33,34,36,37,39,41,13,14,15,16,17,18,19,20,21,22,23,24,25,26,27,28,29,30,31,32,33,34,35,36,37,39,41,14,15,16,17,18,19,20,21,22,23,26,27,28,32,33,34,36,37,39,41,15,16,17,18,20,21,23,26,27,28,29,30,32,33,34,37,41,16,17,18,19,20,21,22,23,24,25,26,27,29,30,31,33,34,35,37,38,40,41,17,19,20,21,22,23,24,26,27,28,29,30,32,33,34,36,37,39,41,18,19,20,21,22,23,24,25,27,28,29,30,31,32,33,34,35,37,38,40,41,19,20,21,22,23,24,25,26,27,28,29,30,31,32,33,34,36,37,39,41,20,21,23,26,27,28,29,30,32,33,34,36,37,39,41,21,22,23,24,25,26,27,28,29,30,31,33,34,35,36,37,38,40,41,26,27,28,29,30,32,36,39,23,26,27,28,29,30,32,33,34,36,37,39,41,24,25,26,27,28,29,30,31,32,33,35,36,37,38,39,40,26,27,28,29,30,32,33,34,36,37,39,41,26,27,28,29,30,32,33,34,36,37,39,41,27,28,29,30,31,32,33,34,35,37,38,40,41,28,29,30,31,32,33,34,35,36,37,38,39,41,29,30,31,33,34,35,37,38,40,41,30,31,32,33,34,36,37,39,41,32,33,34,36,37,39,41,32,33,34,36,37,39,41,33,34,35,36,37,38,40,41,34,35,36,38,39,40,35,36,37,38,39,40,36,37,39,41,37,38,40,41,38,39,40,39,41,40,41,41];

USEFUL_RES = [{},
	{2,4,5,6,7,8,9,11,12,13,15,16,17,18,20,21,22,23,24,25,26,27,28,29,30,31,32,33,34,35,36,37,38,39,40,41,42,43,44,45},
	{1,3,4,5,6,7,8,9,10,11,12,13,14,15,16,17,18,19,20,21,22,24,25,26,27,28,29,30,32,33,34,35,36,37,38,39,40,41,42,43,44,45},
	{1,2,3,4,5,6,8,9,10,11,12,14,15,16,17,18,19,20,21,22,23,24,25,26,27,28,29,31,32,33,34,35,37,38,39,40,41,42,43,44,45},
	{1,2,3,4,5,6,8,9,10,11,12,14,15,16,17,18,19,20,21,22,23,24,25,26,27,28,29,31,32,33,34,35,37,38,39,40,41,42,43,44,45},
	{1,2,3,4,5,6,8,9,10,11,12,14,15,16,17,18,19,20,21,22,23,24,25,26,27,28,29,31,32,33,34,35,37,38,39,40,41,42,43,44,45},
	{1,2,3,4,5,6,7,8,9,10,11,12,13,14,15,16,17,18,19,20,21,22,23,24,25,26,27,28,29,30,31,32,33,34,35,36,37,38,39,40,41,42,43,44},
	{1,2,3,4,5,6,7,8,9,10,11,12,13,14,15,16,17,18,19,20,21,22,23,24,25,26,27,28,29,30,31,32,33,34,35,36,37,38,39,40,41,42,43,44},
	{1,2,3,4,5,6,8,9,10,11,12,14,15,16,17,18,19,20,21,22,23,24,25,26,27,28,29,31,32,33,34,35,37,38,39,40,41,42,43,44,45},
	{1,3,4,5,6,7,8,9,10,11,12,13,14,15,16,17,18,19,20,21,22,24,25,26,27,28,29,30,32,33,34,35,36,37,38,39,40,41,42,43,44,45},
	{2,4,5,6,7,8,9,11,12,13,15,16,17,18,20,21,22,23,24,25,26,27,28,29,30,31,32,33,34,35,36,37,38,39,40,41,42,43,44,45},
	{1,3,4,5,6,7,8,9,10,11,12,13,14,15,16,17,18,19,20,21,22,24,25,26,27,28,29,30,32,33,34,35,36,37,38,39,40,41,42,43,44,45},
	{1,2,3,4,5,6,7,8,9,10,11,12,13,14,15,16,17,18,19,20,21,22,23,24,25,26,27,28,29,30,31,32,33,34,35,36,37,38,39,40,41,42,43,44},
	{1,3,4,5,6,7,8,9,10,11,12,13,14,15,16,17,18,19,20,21,22,24,25,26,27,28,29,30,32,33,34,35,36,37,38,39,40,41,42,43,44,45},
	{1,2,3,4,5,6,7,8,9,10,11,12,13,14,15,16,17,18,19,20,21,22,23,24,25,26,27,28,29,30,31,32,33,34,35,36,37,38,39,40,41,42,43,44},
	{2,4,5,6,7,8,9,11,12,13,15,16,17,18,20,21,22,23,24,25,26,27,28,29,30,31,32,33,34,35,36,37,38,39,40,41,42,43,44,45},
	{1,2,3,4,5,6,7,8,9,10,11,12,13,14,15,16,17,18,19,20,21,22,23,24,25,26,27,28,29,30,31,32,33,34,35,36,37,38,39,40,41,42,43,44},
	{1,2,3,4,5,6,7,8,9,10,11,12,13,14,15,16,17,18,19,20,21,22,23,24,25,26,27,28,29,30,31,32,33,34,35,36,37,38,39,40,41,42,43,44},
	{1,2,3,4,5,6,7,8,9,10,11,12,13,14,15,16,17,18,19,20,21,22,23,24,25,26,27,28,29,30,31,32,33,34,35,36,37,38,39,40,41,42,43,44},
	{2,4,5,6,7,8,9,11,12,13,15,16,17,18,20,21,22,23,24,25,26,27,28,29,30,31,32,33,34,35,36,37,38,39,40,41,42,43,44,45},
	{1,2,3,4,5,6,7,8,9,10,11,12,13,14,15,16,17,18,19,20,21,22,23,24,25,26,27,28,29,30,31,32,33,34,35,36,37,38,39,40,41,42,43,44},
	{1,2,3,4,5,6,7,8,9,10,11,12,13,14,15,16,17,18,19,20,21,22,23,24,25,26,27,28,29,30,31,32,33,34,35,36,37,38,39,40,41,42,43,44},
	{1,3,4,5,6,7,8,9,10,11,12,13,14,15,16,17,18,19,20,21,22,24,25,26,27,28,29,30,32,33,34,35,36,37,38,39,40,41,42,43,44,45},
	{1,2,3,4,5,6,8,9,10,11,12,14,15,16,17,18,19,20,21,22,23,24,25,26,27,28,29,31,32,33,34,35,37,38,39,40,41,42,43,44,45},
	{1,2,3,4,5,6,8,9,10,11,12,14,15,16,17,18,19,20,21,22,23,24,25,26,27,28,29,31,32,33,34,35,37,38,39,40,41,42,43,44,45},
	{1,2,3,4,5,6,7,8,9,10,11,12,13,14,15,16,17,18,19,20,21,22,23,24,25,26,27,28,29,30,31,32,33,34,35,36,37,38,39,40,41,42,43,44},
	{1,2,3,4,5,6,8,9,10,11,12,14,15,16,17,18,19,20,21,22,23,24,25,26,27,28,29,31,32,33,34,35,37,38,39,40,41,42,43,44,45},
	{1,2,3,4,5,6,7,8,9,10,11,12,13,14,15,16,17,18,19,20,21,22,23,24,25,26,27,28,29,30,31,32,33,34,35,36,37,38,39,40,41,42,43,44},
	{2,4,5,6,7,8,9,11,12,13,15,16,17,18,20,21,22,23,24,25,26,27,28,29,30,31,32,33,34,35,36,37,38,39,40,41,42,43,44,45},
	{1,2,3,4,5,6,8,9,10,11,12,14,15,16,17,18,19,20,21,22,23,24,25,26,27,28,29,31,32,33,34,35,37,38,39,40,41,42,43,44,45},
	{1,2,3,4,5,6,7,8,9,10,11,12,13,14,15,16,17,18,19,20,21,22,23,24,25,26,27,28,29,30,31,32,33,34,35,36,37,38,39,40,41,42,43,44},
	{1,2,3,4,5,6,8,9,10,11,12,14,15,16,17,18,19,20,21,22,23,24,25,26,27,28,29,31,32,33,34,35,37,38,39,40,41,42,43,44,45},
	{2,4,5,6,7,8,9,11,12,13,15,16,17,18,20,21,22,23,24,25,26,27,28,29,30,31,32,33,34,35,36,37,38,39,40,41,42,43,44,45},
	{2,4,5,6,7,8,9,11,12,13,15,16,17,18,20,21,22,23,24,25,26,27,28,29,30,31,32,33,34,35,36,37,38,39,40,41,42,43,44,45},
	{2,4,5,6,7,8,9,11,12,13,15,16,17,18,20,21,22,23,24,25,26,27,28,29,30,31,32,33,34,35,36,37,38,39,40,41,42,43,44,45},
	{1,2,3,4,5,6,7,8,9,10,11,12,13,14,15,16,17,18,19,20,21,22,23,24,25,26,27,28,29,30,31,32,33,34,35,36,37,38,39,40,41,42,43,44},
	{1,2,3,4,5,6,8,9,10,11,12,14,15,16,17,18,19,20,21,22,23,24,25,26,27,28,29,31,32,33,34,35,37,38,39,40,41,42,43,44,45},
	{2,4,5,6,7,8,9,11,12,13,15,16,17,18,20,21,22,23,24,25,26,27,28,29,30,31,32,33,34,35,36,37,38,39,40,41,42,43,44,45},
	{1,3,4,5,6,7,8,9,10,11,12,13,14,15,16,17,18,19,20,21,22,24,25,26,27,28,29,30,32,33,34,35,36,37,38,39,40,41,42,43,44,45},
	{1,2,3,4,5,6,7,8,9,10,11,12,13,14,15,16,17,18,19,20,21,22,23,24,25,26,27,28,29,30,31,32,33,34,35,36,37,38,39,40,41,42,43,44},
	{1,3,4,5,6,7,8,9,10,11,12,13,14,15,16,17,18,19,20,21,22,24,25,26,27,28,29,30,32,33,34,35,36,37,38,39,40,41,42,43,44,45},
	{}];

POTENTIAL_ACT = [{3,4,5,6,7,8,9,10,12,13,14,15,17,18,19,21,22,23,24,25,26,27,28,30,31,32,36,37,39,40,41},
	{2,4,5,6,7,8,9,11,13,15,16,17,18,19,20,21,22,24,25,26,27,28,29,30,31,32,33,34,35,36,37,38,40},
	{3,4,5,6,7,8,9,10,12,13,14,15,17,18,19,21,22,23,24,25,26,27,28,30,31,32,36,37,39,40,41},
	{2,3,4,5,6,7,8,9,10,11,12,13,14,15,16,17,18,19,20,21,22,23,24,25,26,27,28,29,30,31,32,33,34,35,36,37,38,39,40,41},
	{2,3,4,5,6,7,8,9,10,11,12,13,14,15,16,17,18,19,20,21,22,23,24,25,26,27,28,29,30,31,32,33,34,35,36,37,38,39,40,41},
	{2,3,4,5,6,7,8,9,10,11,12,13,14,15,16,17,18,19,20,21,22,23,24,25,26,27,28,29,30,31,32,33,34,35,36,37,38,39,40,41},
	{2,3,7,8,10,11,12,13,14,15,16,17,18,19,20,21,22,23,26,28,29,31,33,34,35,36,38,39,40,41},
	{2,3,4,5,6,7,8,9,10,11,12,13,14,15,16,17,18,19,20,21,22,23,24,25,26,27,28,29,30,31,32,33,34,35,36,37,38,39,40,41},
	{2,3,4,5,6,7,8,9,10,11,12,13,14,15,16,17,18,19,20,21,22,23,24,25,26,27,28,29,30,31,32,33,34,35,36,37,38,39,40,41},
	{3,4,5,6,7,8,9,10,12,13,14,15,17,18,19,21,22,23,24,25,26,27,28,30,31,32,36,37,39,40,41},
	{2,3,4,5,6,7,8,9,10,11,12,13,14,15,16,17,18,19,20,21,22,23,24,25,26,27,28,29,30,31,32,33,34,35,36,37,38,39,40,41},
	{2,3,4,5,6,7,8,9,10,11,12,13,14,15,16,17,18,19,20,21,22,23,24,25,26,27,28,29,30,31,32,33,34,35,36,37,38,39,40,41},
	{2,3,7,8,10,11,12,13,14,15,16,17,18,19,20,21,22,23,26,28,29,31,33,34,35,36,38,39,40,41},
	{3,4,5,6,7,8,9,10,12,13,14,15,17,18,19,21,22,23,24,25,26,27,28,30,31,32,36,37,39,40,41},
	{2,3,4,5,6,7,8,9,10,11,12,13,14,15,16,17,18,19,20,21,22,23,24,25,26,27,28,29,30,31,32,33,34,35,36,37,38,39,40,41},
	{2,3,4,5,6,7,8,9,10,11,12,13,14,15,16,17,18,19,20,21,22,23,24,25,26,27,28,29,30,31,32,33,34,35,36,37,38,39,40,41},
	{2,3,4,5,6,7,8,9,10,11,12,13,14,15,16,17,18,19,20,21,22,23,24,25,26,27,28,29,30,31,32,33,34,35,36,37,38,39,40,41},
	{2,3,4,5,6,7,8,9,10,11,12,13,14,15,16,17,18,19,20,21,22,23,24,25,26,27,28,29,30,31,32,33,34,35,36,37,38,39,40,41},
	{3,4,5,6,7,8,9,10,12,13,14,15,17,18,19,21,22,23,24,25,26,27,28,30,31,32,36,37,39,40,41},
	{2,3,4,5,6,7,8,9,10,11,12,13,14,15,16,17,18,19,20,21,22,23,24,25,26,27,28,29,30,31,32,33,34,35,36,37,38,39,40,41},
	{2,3,4,5,6,7,8,9,10,11,12,13,14,15,16,17,18,19,20,21,22,23,24,25,26,27,28,29,30,31,32,33,34,35,36,37,38,39,40,41},
	{2,3,4,5,6,7,8,9,10,11,12,13,14,15,16,17,18,19,20,21,22,23,24,25,26,27,28,29,30,31,32,33,34,35,36,37,38,39,40,41},
	{2,4,5,6,7,8,9,11,13,15,16,17,18,19,20,21,22,24,25,26,27,28,29,30,31,32,33,34,35,36,37,38,40},
	{2,3,4,5,6,7,8,9,10,11,12,13,14,15,16,17,18,19,20,21,22,23,24,25,26,27,28,29,30,31,32,33,34,35,36,37,38,39,40,41},
	{2,3,4,5,6,7,8,9,10,11,12,13,14,15,16,17,18,19,20,21,22,23,24,25,26,27,28,29,30,31,32,33,34,35,36,37,38,39,40,41},
	{2,3,4,5,6,7,8,9,10,11,12,13,14,15,16,17,18,19,20,21,22,23,24,25,26,27,28,29,30,31,32,33,34,35,36,37,38,39,40,41},
	{2,3,4,5,6,7,8,9,10,11,12,13,14,15,16,17,18,19,20,21,22,23,24,25,26,27,28,29,30,31,32,33,34,35,36,37,38,39,40,41},
	{2,3,4,5,6,7,8,9,10,11,12,13,14,15,16,17,18,19,20,21,22,23,24,25,26,27,28,29,30,31,32,33,34,35,36,37,38,39,40,41},
	{2,3,4,5,6,7,8,9,10,11,12,13,14,15,16,17,18,19,20,21,22,23,24,25,26,27,28,29,30,31,32,33,34,35,36,37,38,39,40,41},
	{2,3,7,8,10,11,12,13,14,15,16,17,18,19,20,21,22,23,26,28,29,31,33,34,35,36,38,39,40,41},
	{2,4,5,6,7,8,9,11,13,15,16,17,18,19,20,21,22,24,25,26,27,28,29,30,31,32,33,34,35,36,37,38,40},
	{2,3,4,5,6,7,8,9,10,11,12,13,14,15,16,17,18,19,20,21,22,23,24,25,26,27,28,29,30,31,32,33,34,35,36,37,38,39,40,41},
	{2,3,4,5,6,7,8,9,10,11,12,13,14,15,16,17,18,19,20,21,22,23,24,25,26,27,28,29,30,31,32,33,34,35,36,37,38,39,40,41},
	{2,3,4,5,6,7,8,9,10,11,12,13,14,15,16,17,18,19,20,21,22,23,24,25,26,27,28,29,30,31,32,33,34,35,36,37,38,39,40,41},
	{2,3,4,5,6,7,8,9,10,11,12,13,14,15,16,17,18,19,20,21,22,23,24,25,26,27,28,29,30,31,32,33,34,35,36,37,38,39,40,41},
	{2,3,7,8,10,11,12,13,14,15,16,17,18,19,20,21,22,23,26,28,29,31,33,34,35,36,38,39,40,41},
	{2,3,4,5,6,7,8,9,10,11,12,13,14,15,16,17,18,19,20,21,22,23,24,25,26,27,28,29,30,31,32,33,34,35,36,37,38,39,40,41},
	{2,3,4,5,6,7,8,9,10,11,12,13,14,15,16,17,18,19,20,21,22,23,24,25,26,27,28,29,30,31,32,33,34,35,36,37,38,39,40,41},
	{2,3,4,5,6,7,8,9,10,11,12,13,14,15,16,17,18,19,20,21,22,23,24,25,26,27,28,29,30,31,32,33,34,35,36,37,38,39,40,41},
	{2,3,4,5,6,7,8,9,10,11,12,13,14,15,16,17,18,19,20,21,22,23,24,25,26,27,28,29,30,31,32,33,34,35,36,37,38,39,40,41},
	{2,3,4,5,6,7,8,9,10,11,12,13,14,15,16,17,18,19,20,21,22,23,24,25,26,27,28,29,30,31,32,33,34,35,36,37,38,39,40,41},
	{2,3,4,5,6,7,8,9,10,11,12,13,14,15,16,17,18,19,20,21,22,23,24,25,26,27,28,29,30,31,32,33,34,35,36,37,38,39,40,41},
	{2,3,4,5,6,7,8,9,10,11,12,13,14,15,16,17,18,19,20,21,22,23,24,25,26,27,28,29,30,31,32,33,34,35,36,37,38,39,40,41},
	{2,3,4,5,6,7,8,9,10,11,12,13,14,15,16,17,18,19,20,21,22,23,24,25,26,27,28,29,30,31,32,33,34,35,36,37,38,39,40,41},
	{2,3,4,5,6,9,10,11,12,14,16,20,23,24,25,27,29,30,32,33,34,35,37,38,39,41}];
